
Gurobi 13.0.0 (linux64) logging started Thu Jan 15 00:25:06 2026

Set parameter LogFile to value "../experiments/network-n_30_s_1_rp_0-app_set-id_34_16_apps/submip_40_epr1_model_gurobi.log"
Set parameter TimeLimit to value 885.73654983702
Gurobi Optimizer version 13.0.0 build v13.0.0rc1 (linux64 - "Ubuntu 24.04.3 LTS")

CPU model: Intel(R) Core(TM) Ultra 7 165H, instruction set [SSE2|AVX|AVX2]
Thread count: 22 physical cores, 22 logical processors, using up to 22 threads

Non-default parameters:
TimeLimit  885.73654983702
LogToConsole  0

Academic license 2539022 - for non-commercial use only - registered to al___@studenti.unimi.it
Optimize a model with 7872 rows, 3120 columns and 20067 nonzeros (Min)
Model fingerprint: 0x100bb5f6
Model has 3120 linear objective coefficients
Model has 100 quadratic constraints
Variable types: 0 continuous, 3120 integer (3120 binary)
Coefficient statistics:
  Matrix range     [1e+00, 9e+02]
  QMatrix range    [5e+01, 2e+02]
  Objective range  [1e+01, 2e+02]
  Bounds range     [1e+00, 1e+00]
  RHS range        [1e+00, 1e+09]
  QRHS range       [1e+02, 6e+02]
Presolve removed 7658 rows and 2411 columns
Presolve time: 0.02s
Presolved: 3933 rows, 4338 columns, 22391 nonzeros
Variable types: 0 continuous, 4338 integer (4338 binary)

Root relaxation: objective 3.679986e+03, 656 iterations, 0.02 seconds (0.04 work units)

    Nodes    |    Current Node    |     Objective Bounds      |     Work
 Expl Unexpl |  Obj  Depth IntInf | Incumbent    BestBd   Gap | It/Node Time

     0     0 3679.98647    0   66          - 3679.98647      -     -    0s
     0     0 3742.52970    0  113          - 3742.52970      -     -    0s
     0     0 3747.96992    0  111          - 3747.96992      -     -    0s
     0     0 3748.06513    0  113          - 3748.06513      -     -    0s
     0     0 3784.10717    0  135          - 3784.10717      -     -    0s
     0     0 3786.41986    0  140          - 3786.41986      -     -    0s
     0     0 3786.73549    0  144          - 3786.73549      -     -    0s
     0     0 3834.66132    0  145          - 3834.66132      -     -    0s
     0     0 3840.90215    0  160          - 3840.90215      -     -    0s
     0     0 3842.24275    0  156          - 3842.24275      -     -    0s
     0     0 3857.42220    0  145          - 3857.42220      -     -    1s
     0     0 3857.51147    0  145          - 3857.51147      -     -    1s
     0     0 3857.51147    0  145          - 3857.51147      -     -    1s
     0     2 3857.52083    0  143          - 3857.52083      -     -    1s
  1507   952 4230.42060   21  118          - 3896.39253      -  95.1    5s
  4104  1786 infeasible   26               - 3946.11311      -   104   10s
  5732  2195 infeasible   17               - 3972.41027      -   105   15s
 10443  1866 infeasible   15               - 4058.85686      -   106   20s

Cutting planes:
  Lift-and-project: 2
  Cover: 50
  Clique: 14
  MIR: 71
  Knapsack: 10
  StrongCG: 42
  GUB cover: 8
  Zero half: 1
  RLT: 33
  Relax-and-lift: 31
  BQP: 52

Explored 14640 nodes (1483491 simplex iterations) in 23.26 seconds (23.69 work units)
Thread count was 22 (of 22 available processors)

Solution count 0

Model is infeasible
Best objective -, best bound -, gap -

User-callback calls 33582, time in user-callback 0.05 sec
